zaligvinder/models/SRE/data196/983.txt
g-0.(((@|(@.(@|c-1.i-2)|d-3))|b-4)|((g-5|(@|(@|i-6.e-7.(h-8|i-9)))))*.a-10.g-11.((h-12|(g-13|i-14))|b-15).f-16.(c-17.a-18)*.j-19).((i-20.b-21|(b-22.e-23.(@|h-24.(@|@.(j-25|b-26)).b-27.b-28))*).((((e-29|g-30)|(b-31|(d-32|j-33)))|h-34.a-35.c-36.j-37).(@|(@|(h-38.a-39)*.c-40.i-41.a-42))|(d-43.g-44|(@|((@|(((@|(@|@.(e-45|c-46))))*)*))*.i-47)).(@|(@.(@|a-48.f-49)|(b-50.(j-51.c-52.(b-53|a-54)|a-55)|(f-56|(a-57|f-58)))))).(((@|(@|a-59.(@|(@|@.(a-60.i-61)*))))|i-62)|(g-63|((b-64.g-65|@.(i-66|h-67)))*)).(@|((@|j-68.b-69).d-70|(@|j-71.a-72.(@|@.(f-73|c-74))))).f-75.(@|j-76.i-77).(@|(f-78.(@|((j-79|b-80)|g-81.i-82)))*)|((@|((@.((g-83|(@.(g-84|j-85))*))*|a-86).a-87.(@|(h-88|(@|(@|(h-89.h-90)*))))|b-91.c-92.j-93)))*)
((g-0|((h-1|(a-2.h-3)*))*.j-4.d-5.j-6).e-7.i-8.(j-9.((d-10|((i-11.(b-12|j-13.d-14)|j-15)|c-16))|(j-17|(@|(b-18.j-19)*).g-20)))*.(@|((@|j-21.((d-22.b-23|(j-24|g-25)))*)|e-26.(g-27|c-28))).((@.(f-29|c-30.g-31).j-32|(((@|(c-33|(@|b-34.(@|((f-35|j-36))*))).i-37)|(h-38.i-39|g-40))|((h-41|@.(@.(@|(@.(j-42|(i-43.j-44)*))*))*.j-45)|@.(g-46|a-47))))|@.(@|e-48.b-49.(c-50|h-51))).((((((@|((e-52.e-53)*|(@|@.(@|(j-54|a-55)))).g-56)|@.(j-57|a-58).e-59).c-60.(@|@.(@.(a-61|h-62)|g-63)).i-64.f-65.(d-66.e-67|c-68.d-69)|@.(@|i-70.j-71)))*|@.(@|((c-72.b-73|d-74))*.f-75)).g-76.(g-77|(f-78|j-79)).(f-80|c-81).((@.(d-82|(@|d-83.i-84)).((@|(c-85.e-86)*)|(@|@.(c-87.a-88)*).d-89).(@|e-90.((d-91|f-92)|f-93))|((c-94.j-95|(@|@.(@|(@|i-96.e-97))))|@.((f-98.(@|@.(c-99|d-100)).i-101.(@|((@|b-102.h-103))*))*|h-104)))|((((@|d-105.j-106.j-107.b-108.b-109).a-110.(((@|e-111.b-112))*|@.(@|g-113.f-114)).(@.(c-115|e-116).j-117|(g-118.e-119.d-120)*.(@|(d-121|b-122)))|a-123.(@.(a-124.i-125|((@|((h-126|f-127.h-128))*.(@.(@|j-129.(b-130|d-131)).(d-132|f-133))*.b-134))*)|((g-135.e-136)*|(a-137|i-138))).((i-139|a-140.a-141).g-142)*.b-143.e-144.c-145))*)*))*)*.(((@|h-146.h-147)|@.(@|(@.(j-148.e-149)*)*)).((((@|((@|(f-150|h-151)))*).a-152.(@|(@|((@|d-153.i-154))*)).(@|(@|d-155.i-156))|(@.((@|((d-157|d-158)|h-159))|e-160)|@.((g-161.c-162)*|a-163).i-164.(@|(h-165|c-166))).((@|@.(((@|(d-167.(g-168|e-169).((i-170|g-171)|f-172).(((@|(@|@.(((c-173|h-174))*)*)))*|((e-175|h-176)|i-177))|i-178))|(@|(d-179.e-180.a-181|(f-182|f-183)))))*)|(@|g-184.f-185.(f-186.j-187.e-188|a-189).d-190))))*.(@.(@|(a-191.b-192|c-193))|@.(@|(@|(@|(e-194|a-195)))))|((g-196.(f-197.b-198.i-199|d-200)|@.((@|@.(g-201|a-202))|h-203).a-204)|(a-205|(a-206.b-207)*.e-208))).(@|(@.(g-209.g-210.g-211.a-212.b-213)*|i-214.a-215.a-216.(c-217|e-218.(f-219|b-220)).(@|(g-221|g-222)).f-223.h-224.(d-225.h-226.i-227.h-228.j-229)*).(@.((j-230|i-231))*|(@|e-232.j-233)).f-234.((g-235.g-236.i-237)*)*.d-238.i-239.i-240.((@|@.(@|(i-241|h-242))))*)|(j-243|(((@.(@|f-244.a-245).f-246|f-247.(f-248|a-249).j-250.(@|c-251.c-252).b-253.f-254)|(@|@.(j-255.b-256)*).f-257.f-258.f-259.c-260.(j-261|(f-262|(@|@.(g-263.c-264)*))).(@|((@|(d-265|((a-266|i-267))*))|g-268)).((@.(@|g-269.e-270)|e-271).(a-272|c-273.f-274.c-275)|(b-276|((@|@.(@|((j-277|j-278))*)).i-279.(@|f-280.a-281.a-282)|((@|(b-283|a-284))|j-285)))))|((@|((c-286.e-287|f-288)|(a-289|i-290).g-291.i-292).b-293)|e-294).(((@|f-295.c-296.b-297)|b-298.b-299))*.((@|(@.((c-300|i-301).(j-302|i-303))*.(b-304|(@|f-305.h-306)))*)|(a-307|((((f-308|f-309))*|((g-310|(@|c-311.c-312)))*)|(a-313|g-314))).b-315)))).(((j-316.a-317.(i-318.j-319.b-320.f-321|@.((b-322|d-323))*.(d-324.a-325|(@|(a-326|i-327)))).(@.(@|(i-328.(@|e-329.f-330)|(e-331|(@|g-332.h-333)))).(@|(e-334.c-335)*).(@|((@|j-336.j-337)|f-338)).j-339)*)*.(@.(j-340|(j-341|h-342)).(@.(@|f-343.e-344)|f-345).((g-346|((@|h-347.g-348))*.d-349).(f-350|f-351))*.((@|(i-352|a-353).c-354)|d-355)|(@.(@|d-356.j-357).j-358)*.i-359.(d-360|c-361).((a-362|i-363.((@|(@|a-364.b-365.j-366.g-367.(f-368|j-369.g-370.e-371))))*)|g-372))|d-373.i-374)|e-375.(b-376.f-377)*.c-378.i-379.e-380.d-381.j-382).(((c-383|g-384).((e-385.e-386)*.(@|d-387.c-388.b-389))*.(a-390|(@|(g-391|c-392))).j-393.(j-394|((j-395|(@|((e-396|b-397)|e-398)).a-399.d-400.f-401))*).((j-402.i-403)*)*|c-404.f-405.(@|((i-406|@.(a-407|(f-408|h-409))))*))|(((j-410|((g-411|(e-412|f-413.i-414))|h-415))|i-416.(j-417|i-418.e-419))|((f-420.(e-421|(a-422.j-423|a-424)).(@.(e-425|@.(f-426|h-427)).j-428|c-429.a-430)|(@|((h-431|f-432)|c-433)).h-434.i-435.g-436)|(e-437|(d-438|e-439.d-440.i-441).b-442.f-443)))).(((((@|j-444.(b-445.c-446.a-447)*)|(((@|@.(i-448|i-449.((c-450|d-451))*))|((((@|@.(i-452.d-453)*)|(e-454.(@|c-455.d-456)|@.((@.(a-457.j-458)*)*)*.(h-459|e-460).(g-461|b-462).g-463))|(i-464|h-465)).(c-466|(f-467|((i-468.(@.(@|b-469.g-470))*.c-471)*|d-472))))*))*)|((((@|((j-473|(@|d-474.a-475).d-476))*).(d-477|a-478.d-479.(c-480|e-481)).d-482.(@|j-483.(@|@.(@|@.(g-484.i-485)*).f-486))|((((c-487.(g-488.d-489|a-490)|b-491).(c-492|((((c-493|g-494.i-495))*.j-496)*|d-497))|f-498).(((a-499|(@|@.(@|(j-500|g-501))))|(j-502|((e-503|(@|(c-504|g-505))))*)))*.j-506.(@|(i-507|@.(@|d-508.g-509).d-510)).(@|(f-511|j-512))|e-513)|g-514.a-515.(b-516|f-517).j-518.(@|(@.(@|(@|(f-519|d-520))))*))))*)*)|(g-521.b-522.(@.(@|b-523.h-524)|a-525)|(e-526|d-527)).(@.(c-528.((((@|a-529.c-530))*|b-531.(e-532.b-533.c-534)*)|f-535.a-536.(g-537.b-538)*))*.c-539.j-540.((@.(((@|@.(g-541|c-542))|f-543))*|c-544))*.(((f-545|(@|(g-546|@.((i-547|j-548))*)).(@|@.(c-549|e-550)).c-551).b-552.(@|j-553.b-554).f-555)*|c-556.b-557.h-558)|(@|(@|(g-559|e-560.b-561)).(@|@.(@|i-562.c-563)).i-564).(e-565|((@|(c-566|e-567))|b-568)).h-569.(@|@.(c-570|b-571)).(c-572|((@.((@.(h-573.c-574|i-575)|b-576)|i-577))*|(d-578|f-579)).(j-580|g-581)).i-582.e-583).f-584)|((((a-585.d-586.d-587|(@|(e-588|a-589).a-590).((((@.(i-591|d-592)|d-593))*|c-594).i-595.e-596)*.((@|(f-597|b-598))|((@|(@|(c-599|((f-600|e-601))*)))|c-602)))|((@|(@.(a-603.b-604|d-605).h-606)*).(j-607.(d-608|a-609)|b-610.d-611).((@|g-612.(@|(@|@.(@.(d-613|j-614))*)).((@|(@|@.((f-615|c-616))*))|g-617))|(@|(@|@.(i-618|d-619))).(f-620|g-621).d-622).(c-623.(f-624|b-625).(d-626|a-627).(@|((b-628|e-629)|(d-630|(e-631|i-632)))))*.((@|i-633.d-634)|d-635).((f-636.b-637|h-638)|(((f-639.j-640.(@.(@|h-641.d-642)|e-643).j-644.i-645|(f-646.h-647|g-648)))*)*)|(((@|a-649.h-650.j-651).(@.(@|e-652.d-653)|j-654).((a-655|j-656)|@.((@.((i-657|f-658))*)*.h-659)*).f-660.(@|(@|((a-661|c-662)|h-663))).(((d-664.((g-665|h-666)|(@|c-667.i-668)))*|@.(c-669|(c-670|b-671.e-672.e-673))).b-674)*.(@|(i-675|h-676)))*|(@.(i-677|i-678).g-679.e-680.(@|f-681.(@|a-682.i-683)).((@.(f-684|f-685)|((@|d-686.d-687))*)|c-688.(@|a-689.b-690)).((c-691.h-692.a-693.((f-694.((@|(f-695.g-696|@.(@|h-697.j-698))))*)*)*|e-699.(((@.(@|@.(j-700|d-701))|@.(i-702|c-703))|(i-704.((((@|@.(@|e-705.a-706.i-707)))*|g-708)|(@.((@|@.(i-709|g-710))|g-711))*).d-712.(@|(c-713.e-714)*))*)|((j-715.b-716|(@|@.(f-717.a-718)*))|@.((@|c-719.i-720)|f-721).(j-722|j-723)).i-724))|((j-725.j-726.h-727.i-728.h-729.d-730.h-731|@.((c-732|e-733)|((@.((@|f-734.j-735)|b-736)|b-737)|(@|a-738.a-739.h-740)))).i-741.d-742.d-743.(d-744|a-745).(b-746|h-747).(i-748.((@|(@|(d-749|e-750))).c-751|j-752))*)*))*.(b-753|(@|j-754.((((e-755|i-756))*)*)*.g-757))))))*.(((@|(@|(@|(e-758|f-759))).f-760.h-761.(d-762.e-763)*).(g-764|(e-765|e-766)).(c-767|(@|h-768.(h-769.d-770)*))|g-771)|((@|f-772.(@|(b-773.i-774)*).(@|g-775.(d-776|g-777)).a-778).(d-779|e-780)|(@|(@|(a-781|@.(j-782|h-783).f-784))).(((@|(d-785|g-786)))*|(@|(@|@.((((@.(f-787|d-788))*)*)*)*))))))*.((b-789.a-790|a-791).f-792)*.(((@.(h-793|((b-794|f-795)|a-796).c-797.b-798)|((((e-799|((f-800|b-801)|@.(g-802|d-803)))|g-804)|(((h-805|a-806)|(@|a-807.j-808)))*))*)|((@.((b-809|d-810)|e-811))*.((h-812|e-813)|a-814).c-815.g-816|(f-817|e-818).h-819.(g-820|a-821)))|(c-822|i-823.h-824)))
